12° run output:
{
    "Function": "ClusterA500.tsp",
    "Problem dimension": [
        245,
        138,
        286,
        406,
        362,
        90,
        69,
        345,
        455,
        84,
        128,
        480,
        394,
        343,
        94,
        482,
        336,
        200,
        295,
        242,
        99,
        75,
        367,
        236,
        347,
        318,
        344,
        139,
        260,
        478,
        474,
        459,
        464,
        322,
        4,
        156,
        203,
        354,
        68,
        419,
        253,
        395,
        369,
        413,
        225,
        383,
        305,
        36,
        179,
        60,
        220,
        341,
        466,
        222,
        402,
        498,
        398,
        103,
        380,
        279,
        40,
        287,
        414,
        257,
        132,
        15,
        9,
        173,
        461,
        52,
        118,
        194,
        47,
        96,
        391,
        14,
        66,
        313,
        189,
        113,
        487,
        54,
        326,
        437,
        82,
        116,
        163,
        218,
        310,
        160,
        165,
        183,
        211,
        17,
        428,
        237,
        174,
        250,
        475,
        162,
        436,
        72,
        185,
        177,
        407,
        365,
        126,
        494,
        13,
        2,
        467,
        400,
        299,
        223,
        339,
        276,
        153,
        297,
        25,
        283,
        288,
        485,
        62,
        357,
        7,
        145,
        389,
        197,
        483,
        348,
        427,
        64,
        327,
        489,
        235,
        16,
        3,
        258,
        382,
        51,
        42,
        175,
        77,
        190,
        405,
        102,
        172,
        386,
        410,
        452,
        159,
        259,
        181,
        171,
        125,
        355,
        381,
        377,
        46,
        101,
        460,
        45,
        356,
        170,
        254,
        117,
        168,
        207,
        136,
        349,
        271,
        180,
        244,
        399,
        230,
        21,
        105,
        201,
        312,
        403,
        164,
        43,
        302,
        212,
        416,
        188,
        447,
        457,
        184,
        122,
        28,
        152,
        106,
        495,
        255,
        284,
        29,
        434,
        375,
        199,
        87,
        335,
        120,
        292,
        241,
        418,
        267,
        214,
        269,
        135,
        30,
        176,
        226,
        293,
        234,
        364,
        0,
        215,
        319,
        272,
        477,
        191,
        277,
        294,
        193,
        109,
        334,
        98,
        481,
        261,
        491,
        157,
        32,
        78,
        300,
        142,
        373,
        24,
        58,
        1,
        166,
        53,
        195,
        446,
        65,
        329,
        31,
        88,
        243,
        198,
        114,
        187,
        462,
        79,
        44,
        415,
        83,
        378,
        445,
        268,
        442,
        392,
        440,
        10,
        56,
        141,
        275,
        248,
        8,
        70,
        323,
        315,
        340,
        73,
        421,
        39,
        48,
        409,
        167,
        404,
        290,
        71,
        303,
        423,
        227,
        321,
        81,
        361,
        360,
        206,
        33,
        374,
        454,
        281,
        202,
        127,
        433,
        161,
        417,
        346,
        252,
        12,
        93,
        363,
        85,
        219,
        178,
        451,
        306,
        471,
        95,
        387,
        134,
        484,
        333,
        263,
        429,
        273,
        57,
        262,
        92,
        133,
        182,
        224,
        266,
        231,
        496,
        476,
        291,
        458,
        158,
        27,
        91,
        397,
        296,
        388,
        338,
        456,
        210,
        119,
        330,
        342,
        247,
        239,
        265,
        441,
        155,
        412,
        256,
        274,
        35,
        469,
        115,
        148,
        22,
        311,
        150,
        240,
        444,
        232,
        5,
        307,
        331,
        453,
        396,
        108,
        308,
        424,
        278,
        104,
        472,
        140,
        111,
        38,
        131,
        301,
        49,
        18,
        430,
        216,
        192,
        124,
        196,
        208,
        204,
        205,
        401,
        50,
        390,
        463,
        97,
        59,
        309,
        249,
        368,
        450,
        337,
        86,
        298,
        393,
        112,
        486,
        332,
        370,
        23,
        408,
        435,
        11,
        350,
        37,
        186,
        233,
        270,
        328,
        438,
        443,
        431,
        34,
        384,
        490,
        137,
        213,
        366,
        470,
        325,
        110,
        100,
        320,
        372,
        217,
        229,
        422,
        465,
        147,
        76,
        304,
        251,
        154,
        493,
        209,
        146,
        129,
        55,
        228,
        420,
        314,
        144,
        448,
        107,
        359,
        246,
        282,
        439,
        425,
        280,
        497,
        316,
        26,
        379,
        151,
        492,
        371,
        376,
        358,
        169,
        80,
        130,
        221,
        352,
        488,
        317,
        289,
        67,
        238,
        143,
        385,
        426,
        89,
        6,
        351,
        285,
        432,
        63,
        123,
        473,
        499,
        121,
        149,
        20,
        411,
        74,
        324,
        41,
        353,
        61,
        19,
        449,
        479,
        468,
        264
    ],
    "Global Optimum": 0,
    "Algorithm": "Genetic algorithm",
    "Parameters": {
        "population": 30,
        "offspring": 30,
        "mutation probability": 0.002,
        "crossover probability": 0.9
    },
    "Fitness": 635037,
    "Solution": [
        245,
        138,
        286,
        406,
        362,
        90,
        69,
        345,
        455,
        84,
        128,
        480,
        394,
        343,
        94,
        482,
        336,
        200,
        295,
        242,
        99,
        75,
        367,
        236,
        347,
        318,
        344,
        139,
        260,
        478,
        474,
        459,
        464,
        322,
        4,
        156,
        203,
        354,
        68,
        419,
        253,
        395,
        369,
        413,
        225,
        383,
        305,
        36,
        179,
        60,
        220,
        341,
        466,
        222,
        402,
        498,
        398,
        103,
        380,
        279,
        40,
        287,
        414,
        257,
        132,
        15,
        9,
        173,
        461,
        52,
        118,
        194,
        47,
        96,
        391,
        14,
        66,
        313,
        189,
        113,
        487,
        54,
        326,
        437,
        82,
        116,
        163,
        218,
        310,
        160,
        165,
        183,
        211,
        17,
        428,
        237,
        174,
        250,
        475,
        162,
        436,
        72,
        185,
        177,
        407,
        365,
        126,
        494,
        13,
        2,
        467,
        400,
        299,
        223,
        339,
        276,
        153,
        297,
        25,
        283,
        288,
        485,
        62,
        357,
        7,
        145,
        389,
        197,
        483,
        348,
        427,
        64,
        327,
        489,
        235,
        16,
        3,
        258,
        382,
        51,
        42,
        175,
        77,
        190,
        405,
        102,
        172,
        386,
        410,
        452,
        159,
        259,
        181,
        171,
        125,
        355,
        381,
        377,
        46,
        101,
        460,
        45,
        356,
        170,
        254,
        117,
        168,
        207,
        136,
        349,
        271,
        180,
        244,
        399,
        230,
        21,
        105,
        201,
        312,
        403,
        164,
        43,
        302,
        212,
        416,
        188,
        447,
        457,
        184,
        122,
        28,
        152,
        106,
        495,
        255,
        284,
        29,
        434,
        375,
        199,
        87,
        335,
        120,
        292,
        241,
        418,
        267,
        214,
        269,
        135,
        30,
        176,
        226,
        293,
        234,
        364,
        0,
        215,
        319,
        272,
        477,
        191,
        277,
        294,
        193,
        109,
        334,
        98,
        481,
        261,
        491,
        157,
        32,
        78,
        300,
        142,
        373,
        24,
        58,
        1,
        166,
        53,
        195,
        446,
        65,
        329,
        31,
        88,
        243,
        198,
        114,
        187,
        462,
        79,
        44,
        415,
        83,
        378,
        445,
        268,
        442,
        392,
        440,
        10,
        56,
        141,
        275,
        248,
        8,
        70,
        323,
        315,
        340,
        73,
        421,
        39,
        48,
        409,
        167,
        404,
        290,
        71,
        303,
        423,
        227,
        321,
        81,
        361,
        360,
        206,
        33,
        374,
        454,
        281,
        202,
        127,
        433,
        161,
        417,
        346,
        252,
        12,
        93,
        363,
        85,
        219,
        178,
        451,
        306,
        471,
        95,
        387,
        134,
        484,
        333,
        263,
        429,
        273,
        57,
        262,
        92,
        133,
        182,
        224,
        266,
        231,
        496,
        476,
        291,
        458,
        158,
        27,
        91,
        397,
        296,
        388,
        338,
        456,
        210,
        119,
        330,
        342,
        247,
        239,
        265,
        441,
        155,
        412,
        256,
        274,
        35,
        469,
        115,
        148,
        22,
        311,
        150,
        240,
        444,
        232,
        5,
        307,
        331,
        453,
        396,
        108,
        308,
        424,
        278,
        104,
        472,
        140,
        111,
        38,
        131,
        301,
        49,
        18,
        430,
        216,
        192,
        124,
        196,
        208,
        204,
        205,
        401,
        50,
        390,
        463,
        97,
        59,
        309,
        249,
        368,
        450,
        337,
        86,
        298,
        393,
        112,
        486,
        332,
        370,
        23,
        408,
        435,
        11,
        350,
        37,
        186,
        233,
        270,
        328,
        438,
        443,
        431,
        34,
        384,
        490,
        137,
        213,
        366,
        470,
        325,
        110,
        100,
        320,
        372,
        217,
        229,
        422,
        465,
        147,
        76,
        304,
        251,
        154,
        493,
        209,
        146,
        129,
        55,
        228,
        420,
        314,
        144,
        448,
        107,
        359,
        246,
        282,
        439,
        425,
        280,
        497,
        316,
        26,
        379,
        151,
        492,
        371,
        376,
        358,
        169,
        80,
        130,
        221,
        352,
        488,
        317,
        289,
        67,
        238,
        143,
        385,
        426,
        89,
        6,
        351,
        285,
        432,
        63,
        123,
        473,
        499,
        121,
        149,
        20,
        411,
        74,
        324,
        41,
        353,
        61,
        19,
        449,
        479,
        468,
        264
    ],
    "Nb of functions evaluations": 200010,
    "Computational time in seconds": 931.2517395019531,
    "Stopping criterion in evaluations": 200000
}